============================[ Problem Statistics ]=============================|                                                                             ||  Number of variables:          4242                                         ||  Number of clauses:           10013                                         ||  Parse time:                   0.41 s                                       ||                                                                             |============================[ Search Statistics ]==============================| Conflicts |          ORIGINAL         |          LEARNT          | Progress ||           |    Vars  Clauses Literals |    Limit  Clauses Lit/Cl |          |===============================================================================|       100 |    1591     6218   640239 |     2279      100     53 | 62.501 % |===============================================================================restarts              : 3conflicts             : 230            (372 /sec)decisions             : 495            (0.00 % random) (801 /sec)propagations          : 11711          (18950 /sec)conflict literals     : 16970          (94.99 % deleted)CPU time              : 0.618 sSATISFIABLE